c all_slices.cnf
p cnf 120 46
1 0 
-26 118 0
26 -118 0
-20 117 0
20 -117 0
-4 114 0
4 -114 0
-28 120 0
28 -120 0
-19 116 0
19 -116 0
-27 119 0
27 -119 0
-18 115 0
18 -115 0
-26  -27 0
 -18  -20 0
 20  -27 0
 -4  1 0
 4  -19 0
 20  -26 0
 -4  18  19  20 0
 4  -20 0
 4  -18 0
 -20  -19 0
 4  -1 0
 -26  -28 0
 -18  -19 0
 20  -28 0
 -27  -28 0
 -20  26  27  28 0
-117  118  119  120 0
 -115  -117 0
 -119  -120 0
 -118  -120 0
 117  -119 0
 -118  -119 0
 117  -118 0
 114  -117 0
 114  -115 0
 -114  115  116  117 0
 117  -120 0
 114  -116 0
 -115  -116 0
 -116  -117 0
 114 0
